Gurobi 12.0.1:   lim:time = 14400
  mip:bestbound = 1
Set parameter LogToConsole to value 1
  tech:outlev = 1
Set parameter InfUnbdInfo to value 1
Gurobi Optimizer version 12.0.1 build v12.0.1rc0 (win64 - Windows 11.0 (26100.2))

CPU model: Intel(R) Core(TM) i7-10700 CPU @ 2.90GHz, instruction set [SSE2|AVX|AVX2]
Thread count: 8 physical cores, 16 logical processors, using up to 16 threads

Non-default parameters:
TimeLimit  14400
InfUnbdInfo  1

Optimize a model with 410 rows, 837 columns and 4210 nonzeros
Model fingerprint: 0x1b8e7cfd
Model has 1 quadratic objective term
Model has 6 quadratic constraints
Variable types: 32 continuous, 805 integer (0 binary)
Coefficient statistics:
  Matrix range     [1e+00, 1e+05]
  QMatrix range    [1e+00, 1e+00]
  QLMatrix range   [1e+00, 2e+01]
  Objective range  [2e+00, 9e+01]
  QObjective range [1e+00, 1e+00]
  Bounds range     [1e+00, 1e+02]
  RHS range        [1e+00, 1e+05]
  QRHS range       [1e+02, 1e+02]
Presolve removed 28 rows and 41 columns
Presolve time: 0.04s
Presolved: 938 rows, 1248 columns, 6281 nonzeros
Variable types: 70 continuous, 1178 integer (1124 binary)
Found heuristic solution: objective 874.4100000

Root relaxation: objective 1.171762e+02, 73 iterations, 0.00 seconds (0.00 work units)

    Nodes    |    Current Node    |     Objective Bounds      |     Work
 Expl Unexpl |  Obj  Depth IntInf | Incumbent    BestBd   Gap | It/Node Time

     0     0  117.17618    0   20  874.41000  117.17618  86.6%     -    0s
H    0     0                     758.2900000  117.17618  84.5%     -    0s
H    0     0                     573.0000000  117.17618  79.6%     -    0s
H    0     0                     469.8700000  117.17618  75.1%     -    0s
H    0     0                     438.2800000  117.17618  73.3%     -    0s
H    0     0                     410.2500000  117.17618  71.4%     -    0s
     0     0  201.86000    0   14  410.25000  201.86000  50.8%     -    0s
     0     0  201.86000    0   14  410.25000  201.86000  50.8%     -    0s
H    0     0                     400.4700000  201.86000  49.6%     -    0s
     0     0  201.86000    0   15  400.47000  201.86000  49.6%     -    0s
     0     0  201.86000    0   19  400.47000  201.86000  49.6%     -    0s
     0     0  201.86000    0   19  400.47000  201.86000  49.6%     -    0s
     0     2  202.21000    0   19  400.47000  202.21000  49.5%     -    0s
H   55    64                     398.7400000  202.40772  49.2%  18.6    0s
H   56    64                     389.4900000  202.40772  48.0%  19.0    0s
H   58    64                     382.3700000  202.40772  47.1%  18.6    0s
H  106   131                     381.0900000  202.40772  46.9%  14.1    0s
H  178   186                     380.0600000  202.46167  46.7%  11.7    0s
*  520   390              30     335.7300000  206.04603  38.6%  10.4    0s
*  540   390              17     307.7000000  206.04603  33.0%  10.2    0s
H 1747   753                     303.5100000  211.06805  30.5%  10.1    1s
H 2857   995                     293.6300000  220.06000  25.1%  10.1    1s
H 4161  1159                     287.7400000  227.84219  20.8%  10.3    2s
 12182  2691  258.60889   43   16  287.74000  227.84219  20.8%  10.0    5s
 40965  7516  285.41479   36   12  287.74000  247.18018  14.1%   9.4   10s
 60537  7004 infeasible   33       287.74000  256.72767  10.8%   9.5   15s
 77689  2330     cutoff   36       287.74000  268.98000  6.52%   9.7   20s

Cutting planes:
  Learned: 23
  Gomory: 9
  Cover: 47
  Implied bound: 21
  Projected implied bound: 1
  MIR: 19
  Mixing: 17
  StrongCG: 6
  Flow cover: 146
  GUB cover: 3
  Inf proof: 45
  Zero half: 3
  RLT: 41

Explored 82967 nodes (797787 simplex iterations) in 20.97 seconds (10.19 work units)
Thread count was 16 (of 16 available processors)

Solution count 10: 287.74 287.74 293.63 ... 389.49

Optimal solution found (tolerance 1.00e-04)
Best objective 2.877400000000e+02, best bound 2.877400000000e+02, gap 0.0000%

AMPL MP initial flat model has 837 variables (0 integer, 805 binary);
Objectives: 1 quadratic; 
Constraints:  410 linear; 6 quadratic;

AMPL MP final model has 837 variables (0 integer, 805 binary);
Objectives: 1 quadratic; 
Constraints:  410 linear; 6 quadratic;


-----RESULTS INFO-----
running_time:  21.125
TC.best_bound:  287.74
TC:  287.74000000000007
MIP Gap (%):  1.9755132710366303e-14
=== Vehicle Routes ===
Vehicle 1: 0 → 1
Vehicle 1: 1 → 2
Vehicle 1: 2 → 4
Vehicle 1: 3 → 8
Vehicle 1: 4 → 20
Vehicle 1: 8 → 21
Vehicle 1: 20 → 3
Vehicle 2: 0 → 21
Vehicle 3: 0 → 11
Vehicle 3: 11 → 21
Vehicle 4: 0 → 21

=== Full Vehicle Routes ===
Vehicle 1: 0 → 1 → 2 → 4 → 20 → 3 → 8 → 0 (89<100)
Vehicle 2: 0 → 0 (0<100)
Vehicle 3: 0 → 11 → 0 (30<100)
Vehicle 4: 0 → 0 (0<100)
Arc used by MRT line: y variables:
Customer assigment to PL: u variables:
5 20
6 11
7 11
9 11
10 20
Node is served by regular vehicle: g variables:
1
2
3
4
8
20
11
Customer assigment to Home delivery: gm variables:
1
2
3
4
8
Node total demands: ntd variables:
1 8 1
2 22 1
3 12 1
4 15 1
8 3 1
9 0 0
10 0 0
17 0 0
18 0 0
19 0 0
20 29 1
11 30 1
12 0 0
13 0 0
14 0 0
15 0 0
16 0 0
Customer's demand delivered to PL: l variables:
5
6
7
9
10
Lockers load <= capacity:
0 <= 88
0 <= 98
0 <= 75
29 <= 76
30 <= 95
0 <= 80
0 <= 74
0 <= 83
0 <= 79
0 <= 88
